NAME : mtspf.pid9552.gtsp.161061382.tour
COMMENT : Length = 161061382
COMMENT : Found by LKH [Keld Helsgaun] Tue Mar  4 14:20:30 2025
TYPE : TOUR
DIMENSION : 90
TOUR_SECTION
1
54
51
52
53
2
34
31
32
33
90
87
88
89
79
80
81
82
3
83
84
85
86
7
45
46
43
44
28
29
30
27
40
41
42
39
4
14
11
12
13
15
16
17
18
9
8
55
56
57
58
78
75
76
77
69
70
67
68
59
60
61
62
19
20
21
22
38
35
36
37
49
50
47
48
10
6
23
24
25
26
66
63
64
65
5
74
71
72
73
-1
EOF
